50
20471

218 766
385 500
38 569
543 77
255 980
510 611
636 878
908 83
55 666
266 986
310 14
849 321
944 90
678 421
155 940
54 429
625 881
404 744
310 968
185 12
969 312
848 426
450 481
816 209
113 563
274 364
967 44
49 578
230 884
841 266
726 620
396 577
639 738
210 861
453 276
666 458
932 575
537 651
773 917
443 984
63 475
842 716
172 185
720 264
100 309
101 730
341 445
419 936
6 857
95 893
